
Gurobi 9.5.2 (win64) logging started Tue Mar 28 00:15:41 2023

Set parameter LogFile to value "2023-03-27_20hr-25min-09sec/Nodes40_Arcs45_LocNodes30/Formulation-1Instance-3.log"
Set parameter TimeLimit to value 600
Set parameter IntFeasTol to value 1e-09
Set parameter DualReductions to value 0
Set parameter NonConvex to value 2
Gurobi Optimizer version 9.5.2 build v9.5.2rc0 (win64)
Thread count: 4 physical cores, 8 logical processors, using up to 8 threads
Optimize a model with 156 rows, 270 columns and 550 nonzeros
Model fingerprint: 0x6a2fac8f
Model has 30 quadratic objective terms
Model has 85 SOS constraints
Variable types: 240 continuous, 30 integer (30 binary)
Coefficient statistics:
  Matrix range     [3e-02, 2e+02]
  Objective range  [3e+00, 2e+02]
  QObjective range [2e+00, 2e+00]
  Bounds range     [1e+00, 1e+00]
  RHS range        [3e-01, 3e+03]
Presolve removed 18 rows and 30 columns
Presolve time: 0.01s
Presolved: 193 rows, 269 columns, 608 nonzeros
Presolved model has 65 SOS constraint(s)
Presolved model has 27 bilinear constraint(s)
Variable types: 239 continuous, 30 integer (30 binary)

Root relaxation: unbounded, 154 iterations, 0.00 seconds (0.00 work units)

    Nodes    |    Current Node    |     Objective Bounds      |     Work
 Expl Unexpl |  Obj  Depth IntInf | Incumbent    BestBd   Gap | It/Node Time

     0     0  postponed    0               -          -      -     -    0s
     0     0  postponed    0               -          -      -     -    0s
Exploring 100 nodes in MinRel heuristic
No solution found by MinRel heuristic
     0     2  postponed    0               -          -      -     -    0s
Exploring 10000 nodes in MinRel heuristic
H 4346   904                    -14570.26121          -      -  15.3    1s
Feasible solution found by MinRel heuristic at node 1031
 16220  1484  postponed   42      -14570.261          -      -  16.0    5s
 31394  1822 infeasible   40      -14570.261          -      -  15.3   10s
 47232  2171  postponed   46      -14570.261          -      -  15.0   15s
 63439  2513 infeasible   45      -14570.261          -      -  15.0   20s
 79074  2722 infeasible   45      -14570.261          -      -  15.0   25s
 97441  2732  postponed   44      -14570.261          -      -  14.8   30s
 114944  2765 infeasible   44      -14570.261          -      -  14.9   35s
 129310  2705 infeasible   45      -14570.261          -      -  15.0   40s
 144766  2780 infeasible   43      -14570.261          -      -  15.1   45s
 160103  2670 infeasible   45      -14570.261          -      -  15.3   50s
 175164  2682 infeasible   45      -14570.261          -      -  15.2   55s
 188781  2651  postponed   36      -14570.261          -      -  15.1   60s
 208046  2635 infeasible   42      -14570.261          -      -  15.0   65s
 224065  2612  postponed   42      -14570.261          -      -  14.9   70s
 241074  2583  postponed   44      -14570.261          -      -  14.9   75s
 256656  2683 infeasible   45      -14570.261          -      -  14.8   80s
 273341  2778 infeasible   46      -14570.261          -      -  14.9   85s
H287093  2857                    -13377.26121          -      -  15.0   89s
 287654  2857  postponed   45      -13377.261          -      -  15.0   90s
H288054  2857                    520090.21629          -      -  15.0   90s
 306742  3154  postponed   41      520090.216          -      -  15.0   95s
 321951  3387  postponed   45      520090.216          -      -  14.9  100s
H332028  3408                    626623.63096          -      -  14.9  103s
H333063  3388                    665665.27107          -      -  14.9  104s
H333454  3388                    671690.51718          -      -  14.9  104s
H333923  3561                    679382.35978          -      -  14.9  104s
*333958  3561              99    695367.57411          -      -  14.9  104s
*333960  3561             100    695367.68428          -      -  14.9  104s
*333964  3561             103    695367.68689          -      -  14.9  104s
*333966  3561             104    695367.68727          -      -  14.9  104s
*334705  3561             156    770731.92831          -      -  14.9  104s
*334709  3561             157    770732.19801          -      -  14.9  104s
*334710  3561             157    770732.21129          -      -  14.9  104s
 336488  3495 infeasible   44      770732.211          -      -  14.9  105s
*340331  3524             158    850870.67548          -      -  14.9  106s
*340335  3524             159    850870.80252          -      -  14.9  106s
*346849  3493             198    943228.53396          -      -  14.9  108s
 353233  3587 infeasible   50      943228.534          -      -  14.9  110s
 369544  3896  postponed   59      943228.534          -      -  14.7  115s
 385663  4141  postponed   37      943228.534          -      -  14.6  120s
 402705  4156  postponed   47      943228.534          -      -  14.5  125s
 419605  4127  postponed   38      943228.534          -      -  14.4  130s
 436837  4074  postponed   41      943228.534          -      -  14.3  135s
 457311  3869 infeasible   41      943228.534          -      -  14.2  140s
 474368  3767  postponed   45      943228.534          -      -  14.2  145s
 491749  3837  postponed   40      943228.534          -      -  14.1  150s
 513903  4102  postponed   43      943228.534          -      -  13.9  155s
 528042  4393  postponed   41      943228.534          -      -  13.8  160s
 546288  4386  postponed   42      943228.534          -      -  13.7  165s
 562910  4387 infeasible   42      943228.534          -      -  13.6  170s
 577912  4346 infeasible   45      943228.534          -      -  13.6  175s
 592513  4282  postponed   40      943228.534          -      -  13.6  180s
 607202  4122  postponed   44      943228.534          -      -  13.6  185s
 623431  4010  postponed   41      943228.534          -      -  13.5  190s
 639122  4242  postponed   32      943228.534          -      -  13.5  195s
 655033  4353 infeasible   43      943228.534          -      -  13.4  200s
 672000  4339  postponed   39      943228.534          -      -  13.3  205s
 687719  4331  postponed   41      943228.534          -      -  13.3  210s
 707188  4147 infeasible   42      943228.534          -      -  13.2  215s
 724269  4021  postponed   41      943228.534          -      -  13.2  220s
 740397  4017 infeasible   42      943228.534          -      -  13.1  225s
 756550  3913 infeasible   43      943228.534          -      -  13.1  230s
 773263  3966  postponed   40      943228.534          -      -  13.0  235s
 788896  3912 infeasible   41      943228.534          -      -  13.0  240s
 806158  3764 infeasible   45      943228.534          -      -  12.9  245s
 824189  3627 infeasible   38      943228.534          -      -  12.9  250s
 840505  3720 infeasible   44      943228.534          -      -  12.9  255s
 855317  3678 infeasible   39      943228.534          -      -  12.9  260s
 871001  3589  postponed   45      943228.534          -      -  12.9  265s
 886174  3519 infeasible   44      943228.534          -      -  12.9  270s
 901367  3477 infeasible   37      943228.534          -      -  13.0  275s
 915758  3739  postponed   37      943228.534          -      -  13.0  280s
 930052  4245 infeasible   50      943228.534          -      -  13.1  285s
 944421  4676  postponed   42      943228.534          -      -  13.1  290s
 958638  4957  postponed   43      943228.534          -      -  13.2  295s
 973471  5221 infeasible   43      943228.534          -      -  13.2  300s
 987821  5435 infeasible   45      943228.534          -      -  13.3  305s
 1002494  5505  postponed   42      943228.534          -      -  13.3  310s
 1017219  5489  postponed   41      943228.534          -      -  13.3  315s
 1033116  5443  postponed   43      943228.534          -      -  13.4  320s
 1052418  5377 infeasible   42      943228.534          -      -  13.4  325s
 1068191  5292  postponed   43      943228.534          -      -  13.4  330s
 1085101  5326 infeasible   50      943228.534          -      -  13.4  335s
 1101271  5432 infeasible   43      943228.534          -      -  13.4  340s
 1121804  5389 infeasible   41      943228.534          -      -  13.4  345s
 1137624  5313  postponed   45      943228.534          -      -  13.4  350s
 1153414  5264  postponed   41      943228.534          -      -  13.4  355s
 1167867  5229 infeasible   42      943228.534          -      -  13.4  360s
 1184959  5178 infeasible   45      943228.534          -      -  13.4  365s
 1201741  5201 infeasible   39      943228.534          -      -  13.5  370s
 1217385  5200 infeasible   44      943228.534          -      -  13.5  375s
 1234270  5185  postponed   48      943228.534          -      -  13.5  380s
 1249723  5075 infeasible   42      943228.534          -      -  13.6  385s
 1268954  4996 infeasible   46      943228.534          -      -  13.6  390s
 1284767  5016  postponed   44      943228.534          -      -  13.7  395s
 1300641  5161 infeasible   44      943228.534          -      -  13.7  400s
 1317344  5368  postponed   41      943228.534          -      -  13.7  405s
 1333213  5433  postponed   37      943228.534          -      -  13.7  410s
 1348823  5435 infeasible   44      943228.534          -      -  13.8  415s
 1363284  5467 infeasible   43      943228.534          -      -  13.8  420s
 1383666  5391 infeasible   44      943228.534          -      -  13.8  425s
 1399368  5340 infeasible   43      943228.534          -      -  13.9  430s
 1416635  5259  postponed   43      943228.534          -      -  13.9  435s
 1432412  5200  postponed   36      943228.534          -      -  13.9  440s
 1449319  5098 infeasible   43      943228.534          -      -  13.9  445s
 1465140  4954 infeasible   42      943228.534          -      -  14.0  450s
 1480816  4834 infeasible   43      943228.534          -      -  14.0  455s
 1496516  4804  postponed   41      943228.534          -      -  14.0  460s
 1517450  4736 infeasible   50      943228.534          -      -  14.1  465s
 1532913  4657  postponed   40      943228.534          -      -  14.1  470s
 1547152  4808  postponed   38      943228.534          -      -  14.1  475s
 1561816  5015 infeasible   45      943228.534          -      -  14.2  480s
 1577588  5030  postponed   50      943228.534          -      -  14.2  485s
 1593439  5059  postponed   45      943228.534          -      -  14.2  490s
 1610281  5092  postponed   50      943228.534          -      -  14.2  495s
 1629488  5172 infeasible   46      943228.534          -      -  14.3  500s
 1645137  5120 infeasible   48      943228.534          -      -  14.3  505s
 1661005  5041  postponed   41      943228.534          -      -  14.3  510s
 1676619  5001  postponed   49      943228.534          -      -  14.4  515s
 1692499  5019 infeasible   51      943228.534          -      -  14.4  520s
 1708232  5065  postponed   46      943228.534          -      -  14.4  525s
 1723919  5018 infeasible   44      943228.534          -      -  14.4  530s
 1738526  4855  postponed   38      943228.534          -      -  14.4  535s
 1752860  4930  postponed   51      943228.534          -      -  14.5  540s
 1772606  5032 infeasible   45      943228.534          -      -  14.5  545s
 1788190  4963  postponed   39      943228.534          -      -  14.5  550s
 1805057  4858 infeasible   46      943228.534          -      -  14.5  555s
 1820726  4802 infeasible   42      943228.534          -      -  14.6  560s
 1839777  5036  postponed   41      943228.534          -      -  14.6  565s
 1854343  5358  postponed   44      943228.534          -      -  14.6  570s
 1869204  5411 infeasible   47      943228.534          -      -  14.6  575s
 1885097  5486 infeasible   50      943228.534          -      -  14.6  580s
 1899556  5420 infeasible   45      943228.534          -      -  14.6  585s
 1914040  5335  postponed   42      943228.534          -      -  14.6  590s
 1928637  5358 infeasible   47      943228.534          -      -  14.6  595s
 1944171  5258  postponed   43      943228.534          -      -  14.6  600s

Explored 1944551 nodes (28418694 simplex iterations) in 600.01 seconds (97.67 work units)
Thread count was 8 (of 8 available processors)

Solution count 10: 943229 850871 850871 ... 695368

Time limit reached
Warning: max SOS violation (5.1975e-07) exceeds tolerance
Best objective 9.432285339615e+05, best bound -, gap -

User-callback calls 3892578, time in user-callback 39.43 sec
